NAME /Users/henri/Research/solvers/instances/idol-instances/robust/collection/cbp_Subramanyam_et_al_2020/CapBud_N10_19/models/uncertain_technology_matrix/
ROWS
 N  OBJ
 L  capacity
 L  c_1090
 L  c_1091
 L  c_1092
 L  c_1093
 L  c_1094
 L  c_1095
 L  c_1096
 L  c_1097
 L  c_1098
 L  c_1099
COLUMNS
    MARKER    'MARKER'                 'INTORG'
    x_0        OBJ        3.86401
    x_0        c_1090     1
    x_0        capacity   0.772802
    x_1        OBJ        2.8941
    x_1        c_1091     1
    x_1        capacity   0.578821
    x_2        OBJ        1.49236
    x_2        c_1092     1
    x_2        capacity   0.298472
    x_3        OBJ        1.49414
    x_3        c_1093     1
    x_3        capacity   0.298828
    x_4        OBJ        4.42864
    x_4        c_1094     1
    x_4        capacity   0.885729
    x_5        OBJ        4.42436
    x_5        c_1095     1
    x_5        capacity   0.884871
    x_6        OBJ        9.10712
    x_6        c_1096     1
    x_6        capacity   1.82142
    x_7        OBJ        9.4109
    x_7        c_1097     1
    x_7        capacity   1.88218
    x_8        OBJ        0.190766
    x_8        c_1098     1
    x_8        capacity   0.0381532
    x_9        OBJ        2.59135
    x_9        c_1099     1
    x_9        capacity   0.518269
    y_0        OBJ        3.09121
    y_0        c_1090     1
    y_0        capacity   0.772802
    y_1        OBJ        2.31528
    y_1        c_1091     1
    y_1        capacity   0.578821
    y_2        OBJ        1.19389
    y_2        c_1092     1
    y_2        capacity   0.298472
    y_3        OBJ        1.19531
    y_3        c_1093     1
    y_3        capacity   0.298828
    y_4        OBJ        3.54291
    y_4        c_1094     1
    y_4        capacity   0.885729
    y_5        OBJ        3.53948
    y_5        c_1095     1
    y_5        capacity   0.884871
    y_6        OBJ        7.28569
    y_6        c_1096     1
    y_6        capacity   1.82142
    y_7        OBJ        7.52872
    y_7        c_1097     1
    y_7        capacity   1.88218
    y_8        OBJ        0.152613
    y_8        c_1098     1
    y_8        capacity   0.0381532
    y_9        OBJ        2.07308
    y_9        c_1099     1
    y_9        capacity   0.518269
    MARKER    'MARKER'                 'INTEND'
RHS
    RHS       capacity   19.9489
    RHS       c_1090     1
    RHS       c_1091     1
    RHS       c_1092     1
    RHS       c_1093     1
    RHS       c_1094     1
    RHS       c_1095     1
    RHS       c_1096     1
    RHS       c_1097     1
    RHS       c_1098     1
    RHS       c_1099     1
BOUNDS
 LI BND       x_0        0
 UI BND       x_0        1
 LI BND       x_1        0
 UI BND       x_1        1
 LI BND       x_2        0
 UI BND       x_2        1
 LI BND       x_3        0
 UI BND       x_3        1
 LI BND       x_4        0
 UI BND       x_4        1
 LI BND       x_5        0
 UI BND       x_5        1
 LI BND       x_6        0
 UI BND       x_6        1
 LI BND       x_7        0
 UI BND       x_7        1
 LI BND       x_8        0
 UI BND       x_8        1
 LI BND       x_9        0
 UI BND       x_9        1
 LI BND       y_0        0
 UI BND       y_0        1
 LI BND       y_1        0
 UI BND       y_1        1
 LI BND       y_2        0
 UI BND       y_2        1
 LI BND       y_3        0
 UI BND       y_3        1
 LI BND       y_4        0
 UI BND       y_4        1
 LI BND       y_5        0
 UI BND       y_5        1
 LI BND       y_6        0
 UI BND       y_6        1
 LI BND       y_7        0
 UI BND       y_7        1
 LI BND       y_8        0
 UI BND       y_8        1
 LI BND       y_9        0
 UI BND       y_9        1
ENDATA
